* GENERATED BY CHARMM-GUI (http://www.charmm-gui.org) v3.7 on Oct, 25. 2022. JOBID=6672914435
* INPUT GENERATION
* 
 
DIMENS CHSIZE 5000000 MAXRES 3000000

! Read topology and parameter files
stream toppar.str

! Read PSF
open read unit 10 card name step5_assembly.psf
read psf  unit 10 card

! Read Coordinate
open read unit 10 card name step5_assembly.crd
read coor unit 10 card

! Read the system information
stream step5_assembly.str

!
! Short minimization
!

stream step5_input_minimization.str
crystal free

! Write Coordinate
open write unit 10 card name step5_assembly.pdb
write coor unit 10 pdb

open write unit 10 card name step5_assembly.crd
write coor unit 10 card

stop
